\Problem name: 

Minimize
OBJROW: 41 x_0_0 + 40 x_0_1 + 37 x_0_2 + 27 x_1_0 + 29 x_1_1 + 30 x_1_2 + 28 x_2_0 + 27 x_2_2 + 24 x_3_0 + 23 x_3_1
 + 21 x_3_2
Subject To
constr(0):  x_0_0 + x_1_0 + x_2_0 + x_3_0 <= 75
constr(1):  x_0_1 + x_1_1 + x_2_1 + x_3_1 <= 75
constr(2):  x_0_2 + x_1_2 + x_2_2 + x_3_2 <= 45
constr(3):  x_0_0 + x_0_1 + x_0_2 >= 20
constr(4):  x_1_0 + x_1_1 + x_1_2 >= 30
constr(5):  x_2_0 + x_2_1 + x_2_2 >= 30
constr(6):  x_3_0 + x_3_1 + x_3_2 >= 40
constr(7):  x_2_1 = 0
Bounds
Integers
x_0_0 x_0_1 x_0_2 x_1_0 x_1_1 x_1_2 x_2_0 x_2_1 x_2_2 x_3_0 
x_3_1 x_3_2 
End
